c A SAT instance generated from a 3-CNF formula that had 40 clauses and 10 variables
p cnf 10 40
-3 9 -1 0
-8 -4 -1 0
7 6 -4 0
-7 5 6 0
2 1 -5 0
5 -10 9 0
9 -2 -8 0
-5 4 9 0
-2 -5 3 0
-10 -2 6 0
1 7 -2 0
-2 -7 6 0
-2 -8 9 0
-10 -6 1 0
1 5 -9 0
-5 2 8 0
-2 3 -7 0
-1 2 -9 0
1 10 6 0
3 -9 -4 0
-10 -4 3 0
-3 5 -1 0
-1 -10 6 0
-4 -3 -6 0
-2 -6 -10 0
-1 6 5 0
5 10 1 0
-2 -1 6 0
-1 2 -5 0
-7 -2 -5 0
-8 -7 -6 0
-1 10 4 0
4 -3 -6 0
-10 5 1 0
-3 -6 -4 0
7 4 -10 0
2 6 3 0
-7 5 9 0
-6 1 2 0
3 4 -10 0
